(set-info :status sat) ; swine result
(set-logic ALL)
(declare-fun i1 () Int)
(declare-fun it615 () Int)
(declare-fun i2 () Int)
(declare-fun it616 () Int)
(declare-fun i3 () Int)
(declare-fun it617 () Int)
(declare-fun it618 () Int)
(declare-fun i4 () Int)
(declare-fun i5 () Int)
(declare-fun it619 () Int)
(declare-fun i6 () Int)
(declare-fun it620 () Int)
(declare-fun it627 () Int)
(declare-fun it628 () Int)
(declare-fun it629 () Int)
(declare-fun it630 () Int)
(declare-fun it631 () Int)
(declare-fun it632 () Int)
(declare-fun it633 () Int)
(declare-fun it634 () Int)
(declare-fun it635 () Int)
(declare-fun it636 () Int)
(declare-fun it637 () Int)
(declare-fun it638 () Int)
(declare-fun it273 () Int)
(declare-fun it644 () Int)
(declare-fun it645 () Int)
(declare-fun it646 () Int)
(declare-fun it647 () Int)
(declare-fun it648 () Int)
(declare-fun it649 () Int)
(declare-fun it655 () Int)
(declare-fun it656 () Int)
(declare-fun it657 () Int)
(declare-fun it658 () Int)
(declare-fun it659 () Int)
(declare-fun it660 () Int)
(declare-fun it663 () Int)
(declare-fun it664 () Int)
(declare-fun it665 () Int)
(declare-fun it666 () Int)
(declare-fun it667 () Int)
(declare-fun it668 () Int)
(declare-fun it87 () Int)
(assert (= (+ i1 (- 1)) 0))
(assert (= (+ it615 (- 2)) 0))
(assert (= (+ it616 (* i2 (- 1)) (- 1)) 0))
(assert (= (+ it617 (* i3 (- 1))) 0))
(assert (= (+ (* i4 (- 1)) it618) 0))
(assert (= (+ it619 (* i5 (- 1))) 0))
(assert (= (+ it620 (* i6 (- 1))) 0))
(assert (and (= (+ it615 (- 2)) 0) (>= (+ it617 (- 3)) 0)))
(assert (= (+ it627 (- 5)) 0))
(assert (= (+ (* it616 (- 1)) it628 (- 2)) 0))
(assert (= (+ it629 (* it617 (- 1))) 0))
(assert (= it630 0))
(assert (= (+ (* it619 (- 1)) it631) 0))
(assert (= (+ it632 (* it620 (- 1))) 0))
(assert (and (>= (+ it629 (* it630 (- 1)) (- 2)) 0) (= (+ it627 (- 5)) 0)))
(assert (= (+ it633 (- 7)) 0))
(assert (= (+ it634 (* it628 (- 1)) (- 2)) 0))
(assert (= (+ (* it629 (- 1)) it635) 0))
(assert (= (+ (* it630 (- 1)) it636) 0))
(assert (= it637 0))
(assert (= (+ (* it632 (- 1)) it638) 0))
(assert (let ((a!1 (>= (+ (+ (* it637 (- 2)) it635 (* it636 (- 1))) (- 4)) 0))
      (a!2 (+ (* (exp 2 it273) (+ 0 (- 2)))
              (* (exp 2 (+ it273 (- 1))) (+ 0 it637) (+ 0 (- 2)))
              (+ 0 it635)
              (+ 0 (* it636 (- 1)))))
      (a!3 (>= (+ (+ (* it637 (- 2)) it635 (* it636 (- 1))) (- 3)) 0)))
  (and a!1
       (>= (+ (* it633 (- 1)) 7) 0)
       (>= (+ a!2 (+ 0 1)) (+ 0 0))
       (>= (+ it633 (- 7)) 0)
       (>= a!2 (+ 0 0))
       (>= (+ it273 (- 1)) 0)
       a!3)))
(assert (= (+ it644 (* it633 (- 1))) 0))
(assert (= (+ (* it273 (- 6)) it645 (* it634 (- 1))) 0))
(assert (= (+ (* it635 (- 1)) it646) 0))
(assert (= (+ it647 (* it636 (- 1))) 0))
(assert (let ((a!1 (+ (+ 0 it648)
              (* (exp 2 it273) (+ 0 it637) (+ 0 (- 1)))
              (* (exp 2 (+ it273 1)) (+ 0 (- 1)))
              (+ 0 2))))
  (= a!1 (+ 0 0))))
(assert (let ((a!1 (+ (* (exp 2 it273) (+ 0 (- 2)))
              (+ 0 it649)
              (* (exp 2 (+ it273 (- 1))) (+ 0 it637) (+ 0 (- 2)))
              (+ 0 2))))
  (= a!1 (+ 0 0))))
(assert (and (= (+ it644 (- 7)) 0) (>= (+ it647 (* it648 2) (* it646 (- 1)) 2) 0)))
(assert (= (+ it655 (- 5)) 0))
(assert (= (+ (* it645 (- 1)) it656 (- 2)) 0))
(assert (= (+ it657 (* it646 (- 1))) 0))
(assert (= (+ (* it647 (- 1)) it658 (- 1)) 0))
(assert (= (+ (* it648 (- 1)) it659) 0))
(assert (= (+ it660 (* it649 (- 1))) 0))
(assert (and (>= (+ it657 (* it658 (- 1)) (- 2)) 0) (= (+ it655 (- 5)) 0)))
(assert (= (+ it663 (- 7)) 0))
(assert (= (+ it664 (* it656 (- 1)) (- 2)) 0))
(assert (= (+ (* it657 (- 1)) it665) 0))
(assert (= (+ it666 (* it658 (- 1))) 0))
(assert (= it667 0))
(assert (= (+ (* it660 (- 1)) it668) 0))
(assert (let ((a!1 (* (* (exp 2 (+ it87 (- 1))) (+ 0 it667)) (+ 0 (- 2))))
      (a!3 (* (* (exp 2 (+ it87 (- 1))) (+ 0 it667)) (+ 0 2))))
(let ((a!2 (+ (+ 0 (* it666 (- 1)))
              (* (exp 2 (+ it87 (- 1))) (+ 0 (- 2)))
              (+ 0 it665)
              a!1
              (+ 0 (- 1))))
      (a!4 (+ (+ 0 it666)
              (* (exp 2 (+ it87 (- 1))) (+ 0 2))
              (+ 0 (* it665 (- 1)))
              a!3
              (+ 0 1))))
  (and (>= (+ (* it663 (- 1)) 7) 0)
       (>= (+ (* it666 (- 1)) (* it667 (- 2)) it665 (- 3)) 0)
       (>= a!2 (+ 0 0))
       (>= (+ it666 (* it667 2) (* it665 (- 1)) 3) 0)
       (>= a!4 (+ 0 0))
       (>= (+ it663 (- 7)) 0)
       (>= (+ it87 (- 1)) 0)))))
(check-sat)
